sat
( (temp_init 0)
  (death_init 5)
  (choose_init 7)
  (life_init 8)
  (c_0 (- 2))
  (c_1 0)
  (c_2 5)
  (c_3 7)
  (c_4 8)
  (c_5 (- 2))
  (c_6 0)
  (c_7 2)
  (c_8 (- 2))
  (c_9 0)
  (c_10 0)
  (c_11 (- 1))
  (c_12 0)
  (c_13 1)
  (c_14 0) )
